(set-logic ALL)
(declare-fun var0 () String)
(assert (str.in_re var0 (re.++ (re.union (re.+ (str.to_re "0")) (re.+ (str.to_re "111"))) (re.++ (re.union (re.* (str.to_re "22")) (re.* (str.to_re "333"))) (re.++ (re.* (re.union (str.to_re "444") (str.to_re "55"))) (re.++ (re.+ (re.union (str.to_re "666") (str.to_re "7"))) (re.++ (re.* (re.* (str.to_re "8"))) (re.++ (re.* (re.union (str.to_re "99") (str.to_re "a"))) (re.++ (re.+ (re.* (str.to_re "bb"))) (re.++ (re.* (re.+ (str.to_re "ccc"))) (re.++ (re.+ (re.+ (str.to_re "d"))) (re.++ (re.+ (re.+ (str.to_re "e"))) (re.+ (re.union (str.to_re "fff") (str.to_re "gg")))))))))))))))
(check-sat)